50

97 33 173
97 13 254
96 43 177
94 14 282
93 28 191
91 12 326
89 23 169
89 24 266
86 13 282
83 28 301
79 14 253
78 38 152
77 32 305
77 14 333
77 22 210
75 36 325
75 17 223
74 20 172
71 8 256
68 24 204
68 23 354
67 3 353
65 23 155
63 7 200
61 10 357
61 29 287
58 26 345
57 17 231
56 18 243
54 27 327
48 17 322
46 9 360
44 16 313
43 15 174
41 6 184
41 17 229
40 16 305
38 12 176
36 2 151
36 11 316
35 15 249
35 1 188
35 6 197
35 14 359
35 14 293
34 5 337
33 5 333
33 1 226
33 9 332
31 6 321
